13
00 15 40 50 60 70 80 90 10 11 12 15 01
05 00 23 08 09 10 11 12 13 14 15 16 14
02 03 00 05 06 07 08 09 10 11 12 17 34
07 08 09 00 11 12 02 03 04 05 06 18 27
70 80 90 10 00 12 02 18 40 50 60 59 67
50 60 70 80 90 00 06 10 04 05 06 58 23
21 22 23 24 25 26 00 28 29 30 31 57 87
07 08 09 10 11 12 02 00 04 05 06 06 91
70 80 90 10 11 12 02 18 00 50 60 01 30
50 60 70 80 90 05 06 10 09 00 06 90 24
02 03 04 05 06 07 08 09 10 11 00 13 74
50 60 70 80 90 05 06 10 09 00 06 00 23
12 21 13 31 14 41 15 51 16 61 17 71 00